p cnf 7230 17
6341 -6474 0
6341 -6476 0
6341 -6478 0
-5855 -6341 6473 0
-5865 -6341 6475 0
-5441 -6341 6477 0
-6473 6474 0
5441 -6478 0
-6475 6476 0
5865 -6476 0
5855 -6474 0
-6477 6478 0
-3416 -6341 6480 0
-6471 6472 0
6471 -6472 0
3416 -6480 0
6341 -6480 0
